nNurses = 193;
nHours = 38;
minHours = 6;
maxHours = 20;
maxConsec = 17;
maxPresence = 15;
demand = [40, 36, 31, 26, 30, 30, 29, 34, 38, 35, 30, 27, 31, 26, 27, 26, 25, 30, 32, 34, 29, 27, 26, 28, 25, 25, 24, 29, 28, 33, 32, 28, 24, 21, 18, 21, 18, 18];
